
Gurobi 8.1.1 (mac64, Python) logging started Fri May  1 18:29:35 2020

Academic license - for non-commercial use only

Gurobi 8.1.1 (mac64, Python) logging started Sat May  2 07:52:40 2020

Academic license - for non-commercial use only

Gurobi 8.1.1 (mac64, Python) logging started Sat May  2 07:55:33 2020

Academic license - for non-commercial use only

Gurobi 8.1.1 (mac64, Python) logging started Sat May  2 07:56:37 2020

Academic license - for non-commercial use only

Gurobi 8.1.1 (mac64, Python) logging started Sat May  2 07:59:36 2020

Academic license - for non-commercial use only

Gurobi 8.1.1 (mac64, Python) logging started Sat May  2 08:03:29 2020

Academic license - for non-commercial use only

Gurobi 8.1.1 (mac64, Python) logging started Sat May  2 08:06:09 2020

Academic license - for non-commercial use only

Gurobi 8.1.1 (mac64, Python) logging started Sat May  2 10:25:14 2020

Academic license - for non-commercial use only

Gurobi 8.1.1 (mac64, Python) logging started Sat May  2 10:29:13 2020

Academic license - for non-commercial use only

Gurobi 8.1.1 (mac64, Python) logging started Sat May  2 10:36:00 2020

Academic license - for non-commercial use only

Gurobi 8.1.1 (mac64, Python) logging started Sat May  2 10:40:34 2020

Academic license - for non-commercial use only

Gurobi 8.1.1 (mac64, Python) logging started Mon May  4 10:26:21 2020

Academic license - for non-commercial use only

Gurobi 8.1.1 (mac64, Python) logging started Mon May  4 11:57:15 2020

Academic license - for non-commercial use only

Gurobi 8.1.1 (mac64, Python) logging started Mon May  4 19:34:03 2020

Academic license - for non-commercial use only

Gurobi 8.1.1 (mac64, Python) logging started Mon May  4 19:47:17 2020

Academic license - for non-commercial use only
